\ LP format - for model browsing. Use MPS format to capture full model detail.
Maximize
obj:   x[1] + x[33] + x[98] + x[50] + x[68] + x[6] + x[103] + x[108] + x[107]
   + x[76] + x[130] + x[112] + x[49] + x[82] + x[147] + x[97] + x[137]
   + x[27] + x[124] + x[2] + x[19] + x[61] + x[99] + x[69] + x[58] + x[138]
   + x[139] + x[77] + x[15] + x[48] + x[131] + x[24] + x[122] + x[93]
   + x[31] + x[3] + x[65] + x[37] + x[43] + x[141] + x[83] + x[148] + x[28]
   + x[62] + x[95] + x[4] + x[128] + x[144] + x[134] + x[113] + x[10]
   + x[14] + x[16] + x[81] + x[26] + x[85] + x[55] + x[5] + x[66] + x[70]
   + x[72] + x[106] + x[46] + x[84] + x[149] + x[150] + x[88] + x[32]
   + x[133] + x[8] + x[41] + x[140] + x[44] + x[136] + x[114] + x[21]
   + x[22] + x[23] + x[118] + x[126] + x[127] + x[7] + x[64] + x[18]
   + x[74] + x[146] + x[60] + x[35] + x[40] + x[59] + x[30] + x[9] + x[123]
   + x[17] + x[73] + x[104] + x[29] + x[102] + x[110] + x[56] + x[25]
   + x[92] + x[11] + x[89] + x[121] + x[12] + x[86] + x[13] + x[47] + x[51]
   + x[57] + x[79] + x[94] + x[67] + x[39] + x[109] + x[45] + x[100]
   + x[53] + x[101] + x[78] + x[80] + x[71] + x[75] + x[20] + x[142]
   + x[90] + x[111] + x[116] + x[34] + x[129] + x[38] + x[52] + x[91]
   + x[63] + x[96] + x[132] + x[125] + x[42] + x[143] + x[145] + x[115]
   + x[87] + x[120] + x[117] + x[135] + x[54] + x[36] + x[119] + x[105]
Subject To
 nod1: 11 x[1] + x[33] + x[98] + x[50] + x[68] + x[6] + x[103] + x[108]
   + x[107] + x[76] + x[130] + x[112] + x[49] + x[82] + x[147] + x[97]
   + x[137] + x[27] + x[124] <= 11
 nod33: x[1] + 13 x[33] + x[103] + x[82] + x[2] + x[19] + x[99] + x[141]
   + x[95] + x[70] + x[41] + x[136] + x[118] + x[30] + x[90] + x[38]
   + x[125] + x[115] + x[135] <= 13
 nod98: x[1] + 10 x[98] + x[108] + x[49] + x[15] + x[131] + x[31] + x[95]
   + x[4] + x[14] + x[26] + x[64] + x[59] + x[30] + x[142] + x[120]
   + x[117] + x[105] <= 10
 nod50: x[1] + 10 x[50] + x[69] + x[95] + x[81] + x[55] + x[126] + x[18]
   + x[35] + x[17] + x[25] + x[94] + x[67] + x[109] + x[78] + x[38]
   + x[119] <= 10
 nod68: x[1] + 9 x[68] + x[112] + x[124] + x[122] + x[31] + x[106] + x[150]
   + x[18] + x[9] + x[102] + x[109] + x[100] + x[101] + x[20] + x[52]
   + x[132] <= 9
 nod6: x[1] + 12 x[6] + x[19] + x[70] + x[84] + x[32] + x[133] + x[8]
   + x[41] + x[140] + x[44] + x[136] + x[114] + x[21] + x[22] + x[23]
   + x[118] + x[126] + x[127] <= 12
 nod103: x[1] + x[33] + 11 x[103] + x[76] + x[27] + x[58] + x[48] + x[31]
   + x[46] + x[149] + x[150] + x[32] + x[140] + x[73] + x[104] + x[102]
   + x[56] + x[12] + x[100] + x[115] + x[87] <= 11
 nod108: x[1] + x[98] + 11 x[108] + x[112] + x[27] + x[77] + x[83] + x[28]
   + x[113] + x[16] + x[136] + x[121] + x[13] + x[100] + x[96] + x[119]
   <= 11
 nod107: x[1] + 10 x[107] + x[58] + x[122] + x[43] + x[28] + x[62] + x[113]
   + x[26] + x[84] + x[133] + x[41] + x[13] + x[51] + x[91] + x[143]
   + x[115] <= 10
 nod76: x[1] + x[103] + 7 x[76] + x[130] + x[81] + x[140] + x[44] + x[23]
   + x[127] + x[74] + x[146] + x[79] + x[120] + x[36] <= 7
 nod130: x[1] + x[76] + 9 x[130] + x[26] + x[136] + x[9] + x[73] + x[11]
   + x[89] + x[34] + x[143] + x[87] + x[135] + x[54] <= 9
 nod112: x[1] + x[68] + x[108] + 13 x[112] + x[95] + x[128] + x[85] + x[66]
   + x[70] + x[21] + x[126] + x[127] + x[109] + x[45] + x[20] + x[38]
   + x[132] + x[115] + x[119] <= 13
 nod49: x[1] + x[98] + 10 x[49] + x[137] + x[2] + x[69] + x[48] + x[148]
   + x[95] + x[4] + x[128] + x[5] + x[18] + x[110] + x[25] + x[89] + x[86]
   + x[63] + x[42] <= 10
 nod82: x[1] + x[33] + 8 x[82] + x[69] + x[83] + x[21] + x[146] + x[25]
   + x[45] + x[101] + x[75] + x[129] <= 8
 nod147: x[1] + 10 x[147] + x[138] + x[122] + x[81] + x[5] + x[72] + x[84]
   + x[88] + x[21] + x[118] + x[73] + x[29] + x[94] + x[111] <= 10
 nod97: x[1] + 13 x[97] + x[19] + x[58] + x[24] + x[37] + x[83] + x[62]
   + x[88] + x[41] + x[29] + x[94] + x[109] + x[71] + x[34] + x[38] + x[52]
   + x[125] + x[117] + x[105] <= 13
 nod137: x[1] + x[49] + 11 x[137] + x[27] + x[124] + x[69] + x[37] + x[113]
   + x[150] + x[32] + x[64] + x[146] + x[110] + x[51] + x[79] + x[101]
   + x[80] + x[145] + x[87] <= 11
 nod27: x[1] + x[103] + x[108] + x[137] + 8 x[27] + x[69] + x[62] + x[88]
   + x[8] + x[104] + x[110] + x[12] + x[86] + x[94] + x[109] <= 8
 nod124: x[1] + x[68] + x[137] + 10 x[124] + x[58] + x[65] + x[43] + x[95]
   + x[70] + x[46] + x[150] + x[41] + x[22] + x[23] + x[59] + x[96] <= 10
 nod2: x[33] + x[49] + 10 x[2] + x[19] + x[61] + x[99] + x[69] + x[58]
   + x[138] + x[139] + x[77] + x[15] + x[48] + x[131] + x[24] + x[122]
   + x[93] + x[31] <= 10
 nod19: x[33] + x[6] + x[97] + x[2] + 12 x[19] + x[24] + x[141] + x[5]
   + x[66] + x[72] + x[21] + x[146] + x[104] + x[71] + x[142] + x[116]
   + x[34] + x[129] + x[38] + x[52] + x[91] + x[63] <= 12
 nod61: x[2] + 11 x[61] + x[31] + x[3] + x[113] + x[72] + x[118] + x[40]
   + x[92] + x[53] + x[38] + x[42] + x[143] + x[115] + x[87] + x[119]
   + x[105] <= 11
 nod99: x[33] + x[2] + 8 x[99] + x[24] + x[18] + x[146] + x[56] + x[11]
   + x[12] + x[116] + x[117] <= 8
 nod69: x[50] + x[49] + x[82] + x[137] + x[27] + x[2] + 12 x[69] + x[83]
   + x[148] + x[81] + x[26] + x[106] + x[22] + x[40] + x[30] + x[104]
   + x[121] + x[116] + x[36] <= 12
 nod58: x[103] + x[107] + x[97] + x[124] + x[2] + 9 x[58] + x[4] + x[85]
   + x[84] + x[41] + x[146] + x[80] + x[90] + x[87] <= 9
 nod138: x[147] + x[2] + 7 x[138] + x[48] + x[65] + x[14] + x[106] + x[84]
   + x[21] + x[18] + x[25] + x[12] + x[94] + x[109] <= 7
 nod139: x[2] + 8 x[139] + x[66] + x[106] + x[32] + x[64] + x[45] + x[116]
   + x[145] + x[120] <= 8
 nod77: x[108] + x[2] + 12 x[77] + x[122] + x[93] + x[4] + x[26] + x[66]
   + x[70] + x[46] + x[150] + x[140] + x[22] + x[29] + x[11] + x[53]
   + x[75] + x[20] + x[116] + x[115] + x[105] <= 12
 nod15: x[98] + x[2] + 11 x[15] + x[131] + x[43] + x[128] + x[5] + x[70]
   + x[123] + x[110] + x[56] + x[25] + x[86] + x[13] + x[39] + x[53] <= 11
 nod48: x[103] + x[49] + x[2] + x[138] + 10 x[48] + x[141] + x[28] + x[144]
   + x[55] + x[114] + x[21] + x[102] + x[56] + x[89] + x[12] + x[13]
   + x[51] + x[96] <= 10
 nod131: x[98] + x[2] + x[15] + 11 x[131] + x[93] + x[43] + x[66] + x[35]
   + x[59] + x[17] + x[102] + x[39] + x[53] + x[20] + x[132] + x[42]
   + x[145] <= 11
 nod24: x[97] + x[2] + x[19] + x[99] + 11 x[24] + x[31] + x[148] + x[66]
   + x[84] + x[22] + x[104] + x[86] + x[45] + x[53] + x[80] + x[116]
   + x[120] <= 11
 nod122: x[68] + x[107] + x[147] + x[2] + x[77] + 11 x[122] + x[3] + x[72]
   + x[140] + x[114] + x[25] + x[121] + x[13] + x[71] + x[91] + x[132]
   + x[119] + x[105] <= 11
 nod93: x[2] + x[77] + x[131] + 9 x[93] + x[3] + x[83] + x[144] + x[46]
   + x[118] + x[74] + x[17] + x[56] + x[53] + x[90] + x[54] <= 9
 nod31: x[98] + x[68] + x[103] + x[2] + x[61] + x[24] + 11 x[31] + x[128]
   + x[144] + x[113] + x[14] + x[106] + x[118] + x[60] + x[73] + x[29]
   + x[12] + x[47] <= 11
 nod3: x[61] + x[122] + x[93] + 10 x[3] + x[65] + x[37] + x[43] + x[141]
   + x[83] + x[148] + x[28] + x[62] + x[95] <= 10
 nod65: x[124] + x[138] + x[3] + 8 x[65] + x[37] + x[8] + x[22] + x[40]
   + x[25] + x[12] + x[47] + x[51] + x[91] <= 8
 nod37: x[97] + x[137] + x[3] + x[65] + 10 x[37] + x[62] + x[4] + x[134]
   + x[81] + x[136] + x[21] + x[64] + x[146] + x[9] + x[104] + x[100]
   + x[111] + x[38] <= 10
 nod43: x[107] + x[124] + x[15] + x[131] + x[3] + 12 x[43] + x[26] + x[88]
   + x[136] + x[114] + x[21] + x[74] + x[59] + x[92] + x[89] + x[71]
   + x[129] + x[91] <= 12
 nod141: x[33] + x[19] + x[48] + x[3] + 11 x[141] + x[113] + x[26] + x[140]
   + x[44] + x[74] + x[67] + x[101] + x[111] + x[116] + x[115] <= 11
 nod83: x[108] + x[82] + x[97] + x[69] + x[93] + x[3] + 10 x[83] + x[144]
   + x[5] + x[136] + x[74] + x[104] + x[100] + x[111] + x[42] + x[135]
   <= 10
 nod148: x[49] + x[69] + x[24] + x[3] + 8 x[148] + x[81] + x[46] + x[88]
   + x[73] + x[20] + x[54] <= 8
 nod28: x[108] + x[107] + x[48] + x[3] + 5 x[28] + x[59] + x[90] <= 5
 nod62: x[107] + x[97] + x[27] + x[3] + x[37] + 11 x[62] + x[10] + x[14]
   + x[88] + x[44] + x[118] + x[7] + x[74] + x[29] + x[20] + x[38] + x[125]
   <= 11
 nod95: x[33] + x[98] + x[50] + x[112] + x[49] + x[124] + x[3] + 10 x[95]
   + x[5] + x[72] + x[136] + x[22] + x[59] + x[29] + x[56] + x[25] + x[45]
   + x[91] <= 10
 nod4: x[98] + x[49] + x[58] + x[77] + x[37] + 10 x[4] + x[128] + x[144]
   + x[134] + x[113] + x[10] + x[14] + x[16] + x[81] + x[26] + x[85]
   + x[55] <= 10
 nod128: x[112] + x[49] + x[15] + x[31] + x[4] + 6 x[128] + x[55] + x[8]
   + x[94] + x[39] <= 6
 nod144: x[48] + x[93] + x[31] + x[83] + x[4] + 9 x[144] + x[134] + x[46]
   + x[114] + x[35] + x[102] + x[56] + x[100] + x[101] + x[111] + x[125]
   <= 9
 nod134: x[37] + x[4] + x[144] + 11 x[134] + x[10] + x[14] + x[150]
   + x[140] + x[7] + x[18] + x[74] + x[92] + x[121] + x[94] + x[101]
   + x[87] + x[135] <= 11
 nod113: x[108] + x[107] + x[137] + x[61] + x[31] + x[141] + x[4]
   + 11 x[113] + x[84] + x[21] + x[22] + x[126] + x[64] + x[29] + x[63]
   + x[42] <= 11
 nod10: x[62] + x[4] + x[134] + 8 x[10] + x[106] + x[133] + x[126] + x[104]
   + x[102] + x[110] + x[56] + x[25] + x[92] <= 8
 nod14: x[98] + x[138] + x[31] + x[62] + x[4] + x[134] + 13 x[14] + x[81]
   + x[85] + x[21] + x[127] + x[59] + x[17] + x[73] + x[89] + x[47] + x[67]
   + x[39] + x[109] + x[45] + x[100] <= 13
 nod16: x[108] + x[4] + 10 x[16] + x[26] + x[72] + x[44] + x[136] + x[22]
   + x[17] + x[29] + x[25] + x[92] + x[13] + x[53] + x[101] + x[78] + x[80]
   <= 10
 nod81: x[50] + x[76] + x[147] + x[69] + x[37] + x[148] + x[4] + x[14]
   + 11 x[81] + x[26] + x[60] + x[123] + x[86] + x[79] + x[45] + x[53]
   + x[132] + x[115] + x[119] + x[105] <= 11
 nod26: x[98] + x[107] + x[130] + x[69] + x[77] + x[43] + x[141] + x[4]
   + x[16] + x[81] + 11 x[26] + x[46] + x[22] + x[118] + x[146] + x[11]
   + x[86] + x[79] + x[90] + x[117] <= 11
 nod85: x[112] + x[58] + x[4] + x[14] + 7 x[85] + x[44] + x[22] + x[29]
   + x[121] + x[45] <= 7
 nod55: x[50] + x[48] + x[4] + x[128] + 11 x[55] + x[5] + x[70] + x[46]
   + x[8] + x[23] + x[74] + x[110] + x[25] + x[13] + x[79] + x[117] + x[36]
   <= 11
 nod5: x[49] + x[147] + x[19] + x[15] + x[83] + x[95] + x[55] + 9 x[5]
   + x[66] + x[70] + x[72] + x[106] + x[46] + x[84] + x[149] + x[150]
   + x[88] <= 9
 nod66: x[112] + x[19] + x[139] + x[77] + x[131] + x[24] + x[5] + 10 x[66]
   + x[84] + x[150] + x[140] + x[74] + x[59] + x[110] + x[57] + x[94]
   + x[120] + x[119] <= 10
 nod70: x[33] + x[6] + x[112] + x[124] + x[77] + x[15] + x[55] + x[5]
   + 9 x[70] + x[150] + x[80] + x[20] + x[111] + x[105] <= 9
 nod72: x[147] + x[19] + x[61] + x[122] + x[95] + x[16] + x[5] + 11 x[72]
   + x[84] + x[32] + x[23] + x[73] + x[56] + x[92] + x[80] + x[38] + x[96]
   + x[42] + x[115] + x[120] <= 11
 nod106: x[68] + x[69] + x[138] + x[139] + x[31] + x[10] + x[5] + 13 x[106]
   + x[46] + x[140] + x[136] + x[114] + x[21] + x[123] + x[73] + x[102]
   + x[13] + x[67] + x[39] + x[78] + x[80] + x[142] + x[115] <= 13
 nod46: x[103] + x[124] + x[77] + x[93] + x[148] + x[144] + x[26] + x[55]
   + x[5] + x[106] + 12 x[46] + x[123] + x[110] + x[89] + x[79] + x[75]
   + x[142] + x[91] <= 12
 nod84: x[6] + x[107] + x[147] + x[58] + x[138] + x[24] + x[113] + x[5]
   + x[66] + x[72] + 9 x[84] + x[41] + x[140] + x[21] + x[60] + x[123]
   + x[25] + x[53] + x[71] + x[90] + x[135] <= 9
 nod149: x[103] + x[5] + 5 x[149] + x[150] + x[92] + x[89] + x[71] + x[63]
   + x[115] <= 5
 nod150: x[68] + x[103] + x[137] + x[124] + x[77] + x[134] + x[5] + x[66]
   + x[70] + x[149] + 8 x[150] + x[9] + x[104] + x[34] + x[115] + x[135]
   <= 8
 nod88: x[147] + x[97] + x[27] + x[43] + x[148] + x[62] + x[5] + 10 x[88]
   + x[114] + x[7] + x[123] + x[39] + x[75] + x[20] + x[129] + x[63]
   + x[36] <= 10
 nod32: x[6] + x[103] + x[137] + x[139] + x[72] + 7 x[32] + x[41] + x[23]
   + x[127] + x[146] + x[100] + x[143] <= 7
 nod133: x[6] + x[107] + x[10] + 5 x[133] + x[41] + x[118] + x[126] + x[78]
   + x[91] <= 5
 nod8: x[6] + x[27] + x[65] + x[128] + x[55] + 8 x[8] + x[7] + x[35]
   + x[40] + x[59] + x[30] <= 8
 nod41: x[33] + x[6] + x[107] + x[97] + x[124] + x[58] + x[84] + x[32]
   + x[133] + 13 x[41] + x[44] + x[21] + x[7] + x[29] + x[25] + x[121]
   + x[79] + x[53] + x[75] + x[111] + x[115] <= 13
 nod140: x[6] + x[103] + x[76] + x[77] + x[122] + x[141] + x[134] + x[66]
   + x[106] + x[84] + 10 x[140] + x[22] + x[118] + x[7] + x[17] + x[51]
   + x[80] + x[90] + x[91] <= 10
 nod44: x[6] + x[76] + x[141] + x[62] + x[16] + x[85] + x[41] + 9 x[44]
   + x[64] + x[146] + x[59] + x[9] + x[101] + x[80] + x[42] <= 9
 nod136: x[33] + x[6] + x[108] + x[130] + x[37] + x[43] + x[83] + x[95]
   + x[16] + x[106] + 13 x[136] + x[23] + x[7] + x[123] + x[17] + x[29]
   + x[57] + x[142] + x[111] + x[42] + x[117] <= 13
 nod114: x[6] + x[48] + x[122] + x[43] + x[144] + x[106] + x[88]
   + 11 x[114] + x[7] + x[64] + x[73] + x[104] + x[121] + x[57] + x[53]
   + x[96] + x[132] + x[115] + x[117] <= 11
 nod21: x[6] + x[112] + x[82] + x[147] + x[19] + x[138] + x[48] + x[37]
   + x[43] + x[113] + x[14] + x[106] + x[84] + x[41] + 13 x[21] + x[104]
   + x[142] + x[52] + x[42] + x[143] + x[145] <= 13
 nod22: x[6] + x[124] + x[69] + x[77] + x[24] + x[65] + x[95] + x[113]
   + x[16] + x[26] + x[85] + x[140] + 14 x[22] + x[30] + x[73] + x[11]
   + x[39] + x[71] + x[142] + x[111] + x[129] + x[115] <= 14
 nod23: x[6] + x[76] + x[124] + x[55] + x[72] + x[32] + x[136] + 10 x[23]
   + x[67] + x[100] + x[101] + x[71] + x[63] + x[87] + x[120] <= 10
 nod118: x[33] + x[6] + x[147] + x[61] + x[93] + x[31] + x[62] + x[26]
   + x[133] + x[140] + 12 x[118] + x[146] + x[17] + x[110] + x[86] + x[109]
   + x[101] + x[42] + x[36] <= 12
 nod126: x[50] + x[6] + x[112] + x[113] + x[10] + x[133] + 10 x[126]
   + x[18] + x[59] + x[12] + x[79] + x[39] + x[100] + x[53] + x[87] <= 10
 nod127: x[6] + x[76] + x[112] + x[14] + x[32] + 10 x[127] + x[18] + x[74]
   + x[59] + x[73] + x[104] + x[94] + x[100] + x[53] + x[80] + x[96] <= 10
 nod7: x[62] + x[134] + x[88] + x[8] + x[41] + x[140] + x[136] + x[114]
   + 9 x[7] + x[64] + x[18] + x[74] + x[146] + x[60] <= 9
 nod64: x[98] + x[137] + x[139] + x[37] + x[113] + x[44] + x[114] + x[7]
   + 13 x[64] + x[74] + x[123] + x[73] + x[129] + x[38] + x[91] + x[96]
   + x[125] + x[135] <= 13
 nod18: x[50] + x[68] + x[49] + x[99] + x[138] + x[134] + x[126] + x[127]
   + x[7] + 12 x[18] + x[35] + x[29] + x[102] + x[86] + x[57] + x[67]
   + x[20] + x[111] + x[116] <= 12
 nod74: x[76] + x[93] + x[43] + x[141] + x[83] + x[62] + x[134] + x[55]
   + x[66] + x[127] + x[7] + x[64] + 13 x[74] + x[73] + x[102] + x[92]
   + x[51] + x[100] + x[142] + x[63] <= 13
 nod146: x[76] + x[82] + x[137] + x[19] + x[99] + x[58] + x[37] + x[26]
   + x[32] + x[44] + x[118] + x[7] + 10 x[146] + x[109] <= 10
 nod60: x[31] + x[81] + x[84] + x[7] + 8 x[60] + x[9] + x[110] + x[51]
   + x[57] + x[38] + x[119] <= 8
 nod35: x[50] + x[131] + x[144] + x[8] + x[18] + 9 x[35] + x[17] + x[73]
   + x[47] + x[45] + x[75] + x[142] + x[54] <= 9
 nod40: x[61] + x[69] + x[65] + x[8] + 7 x[40] + x[9] + x[89] + x[109]
   + x[75] <= 7
 nod59: x[98] + x[124] + x[131] + x[43] + x[28] + x[95] + x[14] + x[66]
   + x[8] + x[44] + x[126] + x[127] + 14 x[59] + x[9] + x[29] + x[110]
   + x[86] + x[13] + x[51] + x[67] + x[39] + x[53] + x[117] + x[119] <= 14
 nod30: x[33] + x[98] + x[69] + x[8] + x[22] + 10 x[30] + x[104] + x[56]
   + x[121] + x[13] + x[57] + x[109] + x[45] + x[78] + x[142] + x[42]
   <= 10
 nod9: x[68] + x[130] + x[37] + x[150] + x[44] + x[60] + x[40] + x[59]
   + 9 x[9] + x[123] + x[17] + x[73] + x[104] + x[29] <= 9
 nod123: x[15] + x[81] + x[106] + x[46] + x[84] + x[88] + x[136] + x[64]
   + x[9] + 9 x[123] + x[47] + x[53] + x[71] + x[42] + x[36] + x[105] <= 9
 nod17: x[50] + x[131] + x[93] + x[14] + x[16] + x[140] + x[136] + x[118]
   + x[35] + x[9] + 11 x[17] + x[86] + x[45] + x[71] + x[75] + x[20]
   + x[142] + x[90] <= 11
 nod73: x[103] + x[130] + x[147] + x[31] + x[148] + x[14] + x[72] + x[106]
   + x[114] + x[22] + x[127] + x[64] + x[74] + x[35] + x[9] + 9 x[73]
   + x[142] <= 9
 nod104: x[103] + x[27] + x[19] + x[69] + x[24] + x[37] + x[83] + x[10]
   + x[150] + x[114] + x[21] + x[127] + x[30] + x[9] + 10 x[104] + x[110]
   + x[119] <= 10
 nod29: x[147] + x[97] + x[77] + x[31] + x[62] + x[95] + x[113] + x[16]
   + x[85] + x[41] + x[136] + x[18] + x[59] + x[9] + 13 x[29] + x[102]
   + x[100] + x[143] + x[135] <= 13
 nod102: x[68] + x[103] + x[48] + x[131] + x[144] + x[10] + x[106] + x[18]
   + x[74] + x[29] + 10 x[102] + x[51] + x[71] + x[125] + x[143] + x[120]
   + x[117] + x[36] <= 10
 nod110: x[49] + x[137] + x[27] + x[15] + x[10] + x[55] + x[66] + x[46]
   + x[118] + x[60] + x[59] + x[104] + 9 x[110] + x[42] + x[145] <= 9
 nod56: x[103] + x[99] + x[15] + x[48] + x[93] + x[95] + x[144] + x[10]
   + x[72] + x[30] + 11 x[56] + x[121] + x[47] + x[100] + x[20] + x[125]
   + x[115] <= 11
 nod25: x[50] + x[49] + x[82] + x[138] + x[15] + x[122] + x[65] + x[95]
   + x[10] + x[16] + x[55] + x[84] + x[41] + 11 x[25] + x[57] + x[53]
   + x[63] <= 11
 nod92: x[61] + x[43] + x[134] + x[10] + x[16] + x[72] + x[149] + x[74]
   + 6 x[92] + x[94] <= 6
 nod11: x[130] + x[99] + x[77] + x[26] + x[22] + 4 x[11] + x[89] + x[121]
   <= 4
 nod89: x[130] + x[49] + x[48] + x[43] + x[14] + x[46] + x[149] + x[40]
   + x[11] + 10 x[89] + x[94] + x[80] + x[34] + x[115] <= 10
 nod121: x[108] + x[69] + x[122] + x[134] + x[85] + x[41] + x[114] + x[30]
   + x[56] + x[11] + 9 x[121] + x[57] + x[20] + x[105] <= 9
 nod12: x[103] + x[27] + x[99] + x[138] + x[48] + x[31] + x[65] + x[126]
   + 6 x[12] + x[86] <= 6
 nod86: x[49] + x[27] + x[15] + x[24] + x[81] + x[26] + x[118] + x[18]
   + x[59] + x[17] + x[12] + 11 x[86] + x[109] + x[101] + x[34] + x[52]
   <= 11
 nod13: x[108] + x[107] + x[15] + x[48] + x[122] + x[16] + x[55] + x[106]
   + x[59] + x[30] + 10 x[13] + x[47] + x[51] + x[57] + x[79] + x[94]
   <= 10
 nod47: x[31] + x[65] + x[14] + x[35] + x[123] + x[56] + x[13] + 7 x[47]
   + x[132] <= 7
 nod51: x[107] + x[137] + x[48] + x[65] + x[140] + x[74] + x[60] + x[59]
   + x[102] + x[13] + 9 x[51] + x[109] + x[96] + x[115] <= 9
 nod57: x[66] + x[136] + x[114] + x[18] + x[60] + x[30] + x[25] + x[121]
   + x[13] + 8 x[57] + x[78] + x[20] + x[38] <= 8
 nod79: x[76] + x[137] + x[81] + x[26] + x[55] + x[46] + x[41] + x[126]
   + x[13] + 7 x[79] + x[53] + x[101] + x[52] <= 7
 nod94: x[50] + x[147] + x[97] + x[27] + x[138] + x[128] + x[134] + x[66]
   + x[127] + x[92] + x[89] + x[13] + 12 x[94] + x[39] + x[53] + x[91]
   + x[96] + x[132] + x[54] + x[119] <= 12
 nod67: x[50] + x[141] + x[14] + x[106] + x[23] + x[18] + x[59] + 6 x[67]
   + x[78] + x[75] <= 6
 nod39: x[15] + x[131] + x[128] + x[14] + x[106] + x[88] + x[22] + x[126]
   + x[59] + x[94] + 9 x[39] + x[100] + x[20] + x[111] + x[125] + x[87]
   <= 9
 nod109: x[50] + x[68] + x[112] + x[97] + x[27] + x[138] + x[14] + x[118]
   + x[146] + x[40] + x[30] + x[86] + x[51] + 11 x[109] + x[20] + x[42]
   + x[143] + x[135] <= 11
 nod45: x[112] + x[82] + x[139] + x[24] + x[95] + x[14] + x[81] + x[85]
   + x[35] + x[30] + x[17] + 10 x[45] + x[111] + x[117] <= 10
 nod100: x[68] + x[103] + x[108] + x[37] + x[83] + x[144] + x[14] + x[32]
   + x[23] + x[126] + x[127] + x[74] + x[29] + x[56] + x[39] + 12 x[100]
   + x[34] + x[54] <= 12
 nod53: x[61] + x[77] + x[15] + x[131] + x[24] + x[93] + x[16] + x[81]
   + x[84] + x[41] + x[114] + x[126] + x[127] + x[59] + x[123] + x[25]
   + x[79] + x[94] + 13 x[53] + x[129] + x[52] + x[115] + x[120] + x[135]
   <= 13
 nod101: x[68] + x[82] + x[137] + x[141] + x[144] + x[134] + x[16] + x[44]
   + x[23] + x[118] + x[86] + x[79] + 10 x[101] + x[75] + x[117] + x[135]
   <= 10
 nod78: x[50] + x[16] + x[106] + x[133] + x[30] + x[57] + x[67] + 7 x[78]
   + x[34] + x[38] + x[96] <= 7
 nod80: x[137] + x[58] + x[24] + x[16] + x[70] + x[72] + x[106] + x[140]
   + x[44] + x[127] + x[89] + 11 x[80] + x[142] + x[119] <= 11
 nod71: x[97] + x[19] + x[122] + x[43] + x[84] + x[149] + x[22] + x[23]
   + x[123] + x[17] + x[102] + 10 x[71] + x[116] + x[52] + x[63] + x[117]
   <= 10
 nod75: x[82] + x[77] + x[46] + x[88] + x[41] + x[35] + x[40] + x[17]
   + x[67] + x[101] + 11 x[75] + x[96] + x[143] + x[117] + x[119] <= 11
 nod20: x[68] + x[112] + x[77] + x[131] + x[148] + x[62] + x[70] + x[88]
   + x[18] + x[17] + x[56] + x[121] + x[57] + x[39] + x[109] + 9 x[20]
   + x[96] + x[132] + x[125] <= 9
 nod142: x[98] + x[19] + x[106] + x[46] + x[136] + x[21] + x[22] + x[74]
   + x[35] + x[30] + x[17] + x[73] + x[80] + 8 x[142] <= 8
 nod90: x[33] + x[58] + x[93] + x[28] + x[26] + x[84] + x[140] + x[17]
   + 8 x[90] + x[117] + x[119] + x[105] <= 8
 nod111: x[147] + x[37] + x[141] + x[83] + x[144] + x[70] + x[41] + x[136]
   + x[22] + x[18] + x[39] + x[45] + 9 x[111] <= 9
 nod116: x[19] + x[99] + x[69] + x[139] + x[77] + x[24] + x[141] + x[18]
   + x[71] + 9 x[116] + x[96] + x[54] <= 9
 nod34: x[130] + x[97] + x[19] + x[150] + x[89] + x[86] + x[100] + x[78]
   + 6 x[34] <= 6
 nod129: x[82] + x[19] + x[43] + x[88] + x[22] + x[64] + x[53] + 7 x[129]
   + x[145] <= 7
 nod38: x[33] + x[50] + x[112] + x[97] + x[19] + x[61] + x[37] + x[62]
   + x[72] + x[64] + x[60] + x[57] + x[78] + 8 x[38] + x[42] + x[145] <= 8
 nod52: x[68] + x[97] + x[19] + x[21] + x[86] + x[79] + x[53] + x[71]
   + 5 x[52] + x[117] <= 5
 nod91: x[107] + x[19] + x[122] + x[65] + x[43] + x[95] + x[46] + x[133]
   + x[140] + x[64] + x[94] + 9 x[91] + x[63] + x[54] <= 9
 nod63: x[49] + x[19] + x[113] + x[149] + x[88] + x[23] + x[74] + x[25]
   + x[71] + x[91] + 9 x[63] + x[125] + x[117] <= 9
 nod96: x[108] + x[124] + x[48] + x[72] + x[114] + x[127] + x[64] + x[51]
   + x[94] + x[78] + x[75] + x[20] + x[116] + 10 x[96] + x[132] <= 10
 nod132: x[68] + x[112] + x[131] + x[122] + x[81] + x[114] + x[47] + x[94]
   + x[20] + x[96] + 7 x[132] + x[120] <= 7
 nod125: x[33] + x[97] + x[62] + x[144] + x[64] + x[102] + x[56] + x[39]
   + x[20] + x[63] + 7 x[125] <= 7
 nod42: x[49] + x[61] + x[131] + x[83] + x[113] + x[72] + x[44] + x[136]
   + x[21] + x[118] + x[30] + x[123] + x[110] + x[109] + x[38] + 11 x[42]
   + x[115] + x[87] + x[36] <= 11
 nod143: x[107] + x[130] + x[61] + x[32] + x[21] + x[29] + x[102] + x[109]
   + x[75] + 8 x[143] + x[105] <= 8
 nod145: x[137] + x[139] + x[131] + x[21] + x[110] + x[129] + x[38]
   + 6 x[145] <= 6
 nod115: x[33] + x[103] + x[107] + x[112] + x[61] + x[77] + x[141] + x[81]
   + x[72] + x[106] + x[149] + x[150] + x[41] + x[114] + x[22] + x[56]
   + x[89] + x[51] + x[53] + x[42] + 11 x[115] + x[135] <= 11
 nod87: x[103] + x[130] + x[137] + x[61] + x[58] + x[134] + x[23] + x[126]
   + x[39] + x[42] + 7 x[87] <= 7
 nod120: x[98] + x[76] + x[139] + x[24] + x[66] + x[72] + x[23] + x[102]
   + x[53] + x[132] + 7 x[120] <= 7
 nod117: x[98] + x[97] + x[99] + x[26] + x[55] + x[136] + x[114] + x[59]
   + x[102] + x[45] + x[101] + x[71] + x[75] + x[90] + x[52] + x[63]
   + 11 x[117] <= 11
 nod135: x[33] + x[130] + x[83] + x[134] + x[84] + x[150] + x[64] + x[29]
   + x[109] + x[53] + x[101] + x[115] + 11 x[135] + x[119] + x[105] <= 11
 nod54: x[130] + x[93] + x[148] + x[35] + x[94] + x[100] + x[116] + x[91]
   + 9 x[54] + x[36] + x[105] <= 9
 nod36: x[76] + x[69] + x[55] + x[88] + x[118] + x[123] + x[102] + x[42]
   + x[54] + 7 x[36] <= 7
 nod119: x[50] + x[108] + x[112] + x[61] + x[122] + x[81] + x[66] + x[60]
   + x[59] + x[104] + x[94] + x[80] + x[75] + x[90] + x[135] + 11 x[119]
   <= 11
 nod105: x[98] + x[97] + x[61] + x[77] + x[122] + x[81] + x[70] + x[123]
   + x[121] + x[90] + x[143] + x[135] + x[54] + 9 x[105] <= 9
Bounds
Binaries
 x[1] x[33] x[98] x[50] x[68] x[6] x[103] x[108] x[107] x[76] x[130] x[112]
 x[49] x[82] x[147] x[97] x[137] x[27] x[124] x[2] x[19] x[61] x[99] x[69]
 x[58] x[138] x[139] x[77] x[15] x[48] x[131] x[24] x[122] x[93] x[31] x[3]
 x[65] x[37] x[43] x[141] x[83] x[148] x[28] x[62] x[95] x[4] x[128] x[144]
 x[134] x[113] x[10] x[14] x[16] x[81] x[26] x[85] x[55] x[5] x[66] x[70]
 x[72] x[106] x[46] x[84] x[149] x[150] x[88] x[32] x[133] x[8] x[41]
 x[140] x[44] x[136] x[114] x[21] x[22] x[23] x[118] x[126] x[127] x[7]
 x[64] x[18] x[74] x[146] x[60] x[35] x[40] x[59] x[30] x[9] x[123] x[17]
 x[73] x[104] x[29] x[102] x[110] x[56] x[25] x[92] x[11] x[89] x[121]
 x[12] x[86] x[13] x[47] x[51] x[57] x[79] x[94] x[67] x[39] x[109] x[45]
 x[100] x[53] x[101] x[78] x[80] x[71] x[75] x[20] x[142] x[90] x[111]
 x[116] x[34] x[129] x[38] x[52] x[91] x[63] x[96] x[132] x[125] x[42]
 x[143] x[145] x[115] x[87] x[120] x[117] x[135] x[54] x[36] x[119] x[105]
End
